20
1 0 15
2 0 46
2 1 7
3 0 9
3 1 27
3 2 29
4 0 4
4 1 8
4 2 13
4 3 9
5 0 43
5 1 8
5 2 53
5 3 14
5 4 53
6 0 49
6 1 47
6 2 35
6 3 29
6 4 8
6 5 35
7 0 55
7 1 30
7 2 24
7 3 1
7 4 26
7 5 38
7 6 2
8 0 35
8 1 5
8 2 31
8 3 19
8 4 7
8 5 15
8 6 36
8 7 12
9 0 42
9 1 42
9 2 53
9 3 59
9 4 48
9 5 8
9 6 12
9 7 39
9 8 53
10 0 54
10 1 43
10 2 3
10 3 3
10 4 24
10 5 43
10 6 8
10 7 59
10 8 26
10 9 12
11 0 7
11 1 41
11 2 30
11 3 22
11 4 6
11 5 36
11 6 36
11 7 18
11 8 32
11 9 4
11 10 26
12 0 36
12 1 47
12 2 23
12 3 48
12 4 23
12 5 25
12 6 39
12 7 23
12 8 59
12 9 2
12 10 27
12 11 43
13 0 39
13 1 52
13 2 51
13 3 43
13 4 40
13 5 23
13 6 17
13 7 1
13 8 43
13 9 32
13 10 33
13 11 14
13 12 37
14 0 42
14 1 35
14 2 37
14 3 43
14 4 4
14 5 2
14 6 58
14 7 24
14 8 12
14 9 44
14 10 38
14 11 39
14 12 9
14 13 32
15 0 1
15 1 35
15 2 5
15 3 12
15 4 49
15 5 22
15 6 29
15 7 11
15 8 2
15 9 59
15 10 22
15 11 35
15 12 35
15 13 40
15 14 5
16 0 39
16 1 42
16 2 12
16 3 28
16 4 31
16 5 41
16 6 2
16 7 43
16 8 5
16 9 50
16 10 13
16 11 59
16 12 12
16 13 23
16 14 34
16 15 41
17 0 45
17 1 40
17 2 18
17 3 8
17 4 56
17 5 16
17 6 29
17 7 37
17 8 8
17 9 30
17 10 43
17 11 29
17 12 10
17 13 39
17 14 53
17 15 37
17 16 34
18 0 40
18 1 4
18 2 19
18 3 30
18 4 28
18 5 58
18 6 34
18 7 15
18 8 53
18 9 14
18 10 14
18 11 22
18 12 54
18 13 38
18 14 39
18 15 6
18 16 50
18 17 60
19 0 29
19 1 33
19 2 25
19 3 30
19 4 3
19 5 43
19 6 14
19 7 21
19 8 25
19 9 21
19 10 34
19 11 16
19 12 54
19 13 17
19 14 1
19 15 16
19 16 47
19 17 42
19 18 9
